c gencount --qnf 2
c $Id: gencount.c,v 1.19 2003/11/17 21:14:59 biere Exp $
p cnf 42 103
e 21 22 23 24 25 26 27 28 29 30 36 37 38 39 40 0
r 0.085 42 0
e 11 12 13 14 15 16 17 18 19 20 31 32 33 34 35 0
r 0.753 41 0
e 1 2 3 4 5 6 7 8 9 10 0
-42 -11 21 0
-42 11 -21 0
-42 -12 22 0
-42 12 -22 0
-42 -13 23 0
-42 13 -23 0
-42 -14 24 0
-42 14 -24 0
-42 -15 25 0
-42 15 -25 0
-42 -16 36 0
-42 16 -36 0
-42 -17 37 0
-42 17 -37 0
-42 -18 38 0
-42 18 -38 0
-42 -19 39 0
-42 19 -39 0
-42 -20 40 0
-42 20 -40 0
42 -11 36 0
42 11 -36 0
42 -12 37 0
42 12 -37 0
42 -13 38 0
42 13 -38 0
42 -14 39 0
42 14 -39 0
42 -15 40 0
42 15 -40 0
42 -16 26 0
42 16 -26 0
42 -17 27 0
42 17 -27 0
42 -18 28 0
42 18 -28 0
42 -19 29 0
42 19 -29 0
42 -20 30 0
42 20 -30 0
-41 -1 11 0
-41 1 -11 0
-41 -2 12 0
-41 2 -12 0
-41 -3 13 0
-41 3 -13 0
-41 -4 14 0
-41 4 -14 0
-41 -5 15 0
-41 5 -15 0
-41 -6 31 0
-41 6 -31 0
-41 -7 32 0
-41 7 -32 0
-41 -8 33 0
-41 8 -33 0
-41 -9 34 0
-41 9 -34 0
-41 -10 35 0
-41 10 -35 0
41 -1 31 0
41 1 -31 0
41 -2 32 0
41 2 -32 0
41 -3 33 0
41 3 -33 0
41 -4 34 0
41 4 -34 0
41 -5 35 0
41 5 -35 0
41 -6 16 0
41 6 -16 0
41 -7 17 0
41 7 -17 0
41 -8 18 0
41 8 -18 0
41 -9 19 0
41 9 -19 0
41 -10 20 0
41 10 -20 0
-21 0
-24 0
-25 0
-3 5 0
-3 2 0
3 -5 -2 0
-2 4 0
2 -4 0
-10 5 2 0
-10 -5 -2 0
10 -5 2 0
10 5 -2 0
-9 -4 0
9 4 0
-6 1 3 0
-1 6 0
6 -3 0
-8 10 0
-8 7 0
8 -10 -7 0
-7 9 0
7 -9 0
26 0
